%%%%%%%%%%%%%%%%%%%%%%%%%%%%%%%%%%%%%%%%%%%%%%%%%%%%%%%%%%%%%%%%%%%%%%%%%
%FILE DATA:	Soccer Computational Problem for MiniZinc Models
%AUTHORS:	Robinson Duque, Alejandro Arbelaez, Juan Francisco Díaz
%CONTACT:  	robinson.duque@correounivalle.edu.co 
%LAST UPDATE:	May, 2018 
%ROUND ROBIN:2
%TEAMS:20
%PRESENT FIXTURE:25
%FIXTURES TO PLAY:13
%GAMES TO PLAY:130
%%%%%%%%%%%%%%%%%%%%%%%%%%%%%%%%%%%%%%%%%%%%%%%%%%%%%%%%%%%%%%%%%%%%%%%%%
%Number of teams:
n=20;

%For the purpose of our models, we offer two representations of the games to play, namely fixtures and games to play:

%Fixtures to play:
%fixtures=[|0,0,0,1,1,0,1,1,1,1,1,1,1,0,1,0,1,0,1,1
%|0,0,1,1,1,1,0,1,1,1,1,0,0,1,0,1,1,1,1,0
%|0,1,0,1,1,1,1,1,0,1,0,1,1,1,1,1,1,0,0,0
%|1,1,1,0,1,1,1,1,1,0,0,1,1,1,1,0,0,1,0,0
%|1,1,1,1,0,1,1,1,1,0,0,0,0,0,0,1,1,1,1,1
%|0,1,1,1,1,0,1,0,1,0,1,0,1,0,1,1,1,1,1,0
%|1,0,1,1,1,1,0,1,1,0,1,1,1,1,1,0,1,0,0,0
%|1,1,1,1,1,0,1,0,1,0,0,0,1,0,1,0,1,1,1,1
%|1,1,0,1,1,1,1,1,0,0,1,1,1,0,1,0,0,1,0,1
%|1,1,1,0,0,0,0,0,0,0,1,1,1,1,1,1,1,1,1,1
%|1,1,0,0,0,1,1,0,1,1,0,1,1,1,1,1,0,0,1,1
%|1,0,1,1,0,0,1,0,1,1,1,0,1,1,0,1,1,0,1,1
%|1,0,1,1,0,1,1,1,1,1,1,1,0,0,0,0,0,1,1,1
%|0,1,1,1,0,0,1,0,0,1,1,1,0,0,1,1,1,1,1,1
%|1,0,1,1,0,1,1,1,1,1,1,0,0,1,0,1,0,0,1,1
%|0,1,1,0,1,1,0,0,0,1,1,1,0,1,1,0,1,1,1,1
%|1,1,1,0,1,1,1,1,0,1,0,1,0,1,0,1,0,1,0,1
%|0,1,0,1,1,1,0,1,1,1,0,0,1,1,0,1,1,0,1,1
%|1,1,0,0,1,1,0,1,0,1,1,1,1,1,1,1,0,1,0,0
%|1,0,0,0,1,0,0,1,1,1,1,1,1,1,1,1,1,1,0,0|];

%Played Fixtures:
%PlayedFixtures=[|0,2,2,1,1,2,1,1,1,1,1,1,1,2,1,2,1,2,1,1
%|2,0,1,1,1,1,2,1,1,1,1,2,2,1,2,1,1,1,1,2
%|2,1,0,1,1,1,1,1,2,1,2,1,1,1,1,1,1,2,2,2
%|1,1,1,0,1,1,1,1,1,2,2,1,1,1,1,2,2,1,2,2
%|1,1,1,1,0,1,1,1,1,2,2,2,2,2,2,1,1,1,1,1
%|2,1,1,1,1,0,1,2,1,2,1,2,1,2,1,1,1,1,1,2
%|1,2,1,1,1,1,0,1,1,2,1,1,1,1,1,2,1,2,2,2
%|1,1,1,1,1,2,1,0,1,2,2,2,1,2,1,2,1,1,1,1
%|1,1,2,1,1,1,1,1,0,2,1,1,1,2,1,2,2,1,2,1
%|1,1,1,2,2,2,2,2,2,0,1,1,1,1,1,1,1,1,1,1
%|1,1,2,2,2,1,1,2,1,1,0,1,1,1,1,1,2,2,1,1
%|1,2,1,1,2,2,1,2,1,1,1,0,1,1,2,1,1,2,1,1
%|1,2,1,1,2,1,1,1,1,1,1,1,0,2,2,2,2,1,1,1
%|2,1,1,1,2,2,1,2,2,1,1,1,2,0,1,1,1,1,1,1
%|1,2,1,1,2,1,1,1,1,1,1,2,2,1,0,1,2,2,1,1
%|2,1,1,2,1,1,2,2,2,1,1,1,2,1,1,0,1,1,1,1
%|1,1,1,2,1,1,1,1,2,1,2,1,2,1,2,1,0,1,2,1
%|2,1,2,1,1,1,2,1,1,1,2,2,1,1,2,1,1,0,1,1
%|1,1,2,2,1,1,2,1,2,1,1,1,1,1,1,1,2,1,0,2
%|1,2,2,2,1,2,2,1,1,1,1,1,1,1,1,1,1,1,2,0|];

%Games to play:
games=[|3,2|4,1|4,2|4,3|5,1|5,2|5,3|5,4|6,2|6,3|6,4|6,5|7,1|7,3|7,4|7,5|7,6|8,1|8,2|8,3|8,4|8,5|8,7|9,1|9,2|9,4|9,5|9,6|9,7|9,8|10,1|10,2|10,3|11,1|11,2|11,6|11,7|11,9|11,10|12,1|12,3|12,4|12,7|12,9|12,10|12,11|13,1|13,3|13,4|13,6|13,7|13,8|13,9|13,10|13,11|13,12|14,2|14,3|14,4|14,7|14,10|14,11|14,12|15,1|15,3|15,4|15,6|15,7|15,8|15,9|15,10|15,11|15,14|16,2|16,3|16,5|16,6|16,10|16,11|16,12|16,14|16,15|17,1|17,2|17,3|17,5|17,6|17,7|17,8|17,10|17,12|17,14|17,16|18,2|18,4|18,5|18,6|18,8|18,9|18,10|18,13|18,14|18,16|18,17|19,1|19,2|19,5|19,6|19,8|19,10|19,11|19,12|19,13|19,14|19,15|19,16|19,18|20,1|20,5|20,8|20,9|20,10|20,11|20,12|20,13|20,14|20,15|20,16|20,17|20,18|];

%Played Games:
%PlayedGames=[|2,1|2,1|3,1|3,1|3,2|4,1|4,2|4,3|5,1|5,2|5,3|5,4|6,1|6,1|6,2|6,3|6,4|6,5|7,1|7,2|7,2|7,3|7,4|7,5|7,6|8,1|8,2|8,3|8,4|8,5|8,6|8,6|8,7|9,1|9,2|9,3|9,3|9,4|9,5|9,6|9,7|9,8|10,1|10,2|10,3|10,4|10,4|10,5|10,5|10,6|10,6|10,7|10,7|10,8|10,8|10,9|10,9|11,1|11,2|11,3|11,3|11,4|11,4|11,5|11,5|11,6|11,7|11,8|11,8|11,9|11,10|12,1|12,2|12,2|12,3|12,4|12,5|12,5|12,6|12,6|12,7|12,8|12,8|12,9|12,10|12,11|13,1|13,2|13,2|13,3|13,4|13,5|13,5|13,6|13,7|13,8|13,9|13,10|13,11|13,12|14,1|14,1|14,2|14,3|14,4|14,5|14,5|14,6|14,6|14,7|14,8|14,8|14,9|14,9|14,10|14,11|14,12|14,13|14,13|15,1|15,2|15,2|15,3|15,4|15,5|15,5|15,6|15,7|15,8|15,9|15,10|15,11|15,12|15,12|15,13|15,13|15,14|16,1|16,1|16,2|16,3|16,4|16,4|16,5|16,6|16,7|16,7|16,8|16,8|16,9|16,9|16,10|16,11|16,12|16,13|16,13|16,14|16,15|17,1|17,2|17,3|17,4|17,4|17,5|17,6|17,7|17,8|17,9|17,9|17,10|17,11|17,11|17,12|17,13|17,13|17,14|17,15|17,15|17,16|18,1|18,1|18,2|18,3|18,3|18,4|18,5|18,6|18,7|18,7|18,8|18,9|18,10|18,11|18,11|18,12|18,12|18,13|18,14|18,15|18,15|18,16|18,17|19,1|19,2|19,3|19,3|19,4|19,4|19,5|19,6|19,7|19,7|19,8|19,9|19,9|19,10|19,11|19,12|19,13|19,14|19,15|19,16|19,17|19,17|19,18|20,1|20,2|20,2|20,3|20,3|20,4|20,4|20,5|20,6|20,6|20,7|20,7|20,8|20,9|20,10|20,11|20,12|20,13|20,14|20,15|20,16|20,17|20,18|20,19|20,19|];

%Played Games - Win Results:
%% 0  0  0  0  0  0  0  1  0  1  0  0  0  0  0  0  0  0  0  0
%% 0  0  1  1  0  1  0  1  0  0  0  0  0  1  0  0  0  1  0  0
%% 0  0  0  1  0  0  0  0  0  0  0  1  0  1  1  1  1  0  0  0
%% 0  0  0  0  0  0  0  0  0  0  0  0  1  0  1  0  0  0  0  0
%% 0  0  0  0  0  0  0  0  0  0  0  0  0  0  0  0  0  0  0  0
%% 0  0  0  0  1  0  0  0  0  0  0  0  0  0  1  0  1  1  0  2
%% 1  2  0  1  1  0  0  0  1  0  0  0  1  1  1  0  1  0  0  0
%% 0  0  0  0  0  0  0  0  0  0  0  0  0  0  0  0  0  0  0  0
%% 1  0  0  1  1  0  0  1  0  0  1  0  0  0  1  0  0  1  0  1
%% 0  0  0  0  0  0  0  0  0  0  0  0  0  0  0  0  0  0  0  0
%% 1  0  0  0  0  0  0  0  0  0  0  1  1  0  0  0  0  0  0  0
%% 0  0  0  0  0  0  0  0  0  1  0  0  0  0  0  0  0  0  0  0
%% 0  0  0  0  0  0  0  1  0  0  0  1  0  0  0  0  0  0  0  0
%% 0  0  0  0  0  0  0  0  0  0  0  0  0  0  0  1  1  0  0  0
%% 1  0  0  0  0  0  0  0  0  1  1  0  0  1  0  0  0  0  0  0
%% 0  0  0  0  0  0  0  0  0  0  0  0  0  0  0  0  0  0  0  0
%% 0  0  0  0  1  0  0  0  0  0  0  0  0  0  0  1  0  0  0  0
%% 0  0  0  0  1  0  0  1  0  0  0  0  1  0  0  1  0  0  0  0
%% 0  1  1  1  0  1  1  0  2  1  1  1  0  1  1  1  0  0  0  0
%% 0  1  1  1  0  0  0  1  0  0  1  1  0  1  0  0  0  1  1  0
%Played Games - Tie Results:
%% 0  2  2  1  1  2  0  0  0  0  0  1  1  2  0  2  1  2  1  1
%% 2  0  0  0  1  0  0  0  1  1  1  2  2  0  2  1  1  0  0  1
%% 2  0  0  0  1  1  1  1  2  1  2  0  1  0  0  0  0  2  1  1
%% 1  0  0  0  1  1  0  1  0  2  2  1  0  1  0  2  2  1  1  1
%% 1  1  1  1  0  0  0  1  0  2  2  2  2  2  2  1  0  0  1  1
%% 2  0  1  1  0  0  1  2  1  2  1  2  1  2  0  1  0  0  0  0
%% 0  0  1  0  0  1  0  1  0  2  1  1  0  0  0  2  0  2  1  2
%% 0  0  1  1  1  2  1  0  0  2  2  2  0  2  1  2  1  0  1  0
%% 0  1  2  0  0  1  0  0  0  2  0  1  1  2  0  2  2  0  0  0
%% 0  1  1  2  2  2  2  2  2  0  1  0  1  1  0  1  1  1  0  1
%% 0  1  2  2  2  1  1  2  0  1  0  0  0  1  0  1  2  2  0  0
%% 1  2  0  1  2  2  1  2  1  0  0  0  0  1  2  1  1  2  0  0
%% 1  2  1  0  2  1  0  0  1  1  0  0  0  2  2  2  2  0  1  1
%% 2  0  0  1  2  2  0  2  2  1  1  1  2  0  0  0  0  1  0  0
%% 0  2  0  0  2  0  0  1  0  0  0  2  2  0  0  1  2  2  0  1
%% 2  1  0  2  1  1  2  2  2  1  1  1  2  0  1  0  0  0  0  1
%% 1  1  0  2  0  0  0  1  2  1  2  1  2  0  2  0  0  1  2  1
%% 2  0  2  1  0  0  2  0  0  1  2  2  0  1  2  0  1  0  1  0
%% 1  0  1  1  1  0  1  1  0  0  0  0  1  0  0  0  2  1  0  1
%% 1  1  1  1  1  0  2  0  0  1  0  0  1  0  1  1  1  0  1  0
%Played Games - Lose Results:
%% 0  0  0  0  0  0  1  0  1  0  1  0  0  0  1  0  0  0  0  0
%% 0  0  0  0  0  0  2  0  0  0  0  0  0  0  0  0  0  0  1  1
%% 0  1  0  0  0  0  0  0  0  0  0  0  0  0  0  0  0  0  1  1
%% 0  1  1  0  0  0  1  0  1  0  0  0  0  0  0  0  0  0  1  1
%% 0  0  0  0  0  1  1  0  1  0  0  0  0  0  0  0  1  1  0  0
%% 0  1  0  0  0  0  0  0  0  0  0  0  0  0  0  0  0  0  1  0
%% 0  0  0  0  0  0  0  0  0  0  0  0  0  0  0  0  0  0  1  0
%% 1  1  0  0  0  0  0  0  1  0  0  0  1  0  0  0  0  1  0  1
%% 0  0  0  0  0  0  1  0  0  0  0  0  0  0  0  0  0  0  2  0
%% 1  0  0  0  0  0  0  0  0  0  0  1  0  0  1  0  0  0  1  0
%% 0  0  0  0  0  0  0  0  1  0  0  0  0  0  1  0  0  0  1  1
%% 0  0  1  0  0  0  0  0  0  0  1  0  1  0  0  0  0  0  1  1
%% 0  0  0  1  0  0  1  0  0  0  1  0  0  0  0  0  0  1  0  0
%% 0  1  1  0  0  0  1  0  0  0  0  0  0  0  1  0  0  0  1  1
%% 0  0  1  1  0  1  1  0  1  0  0  0  0  0  0  0  0  0  1  0
%% 0  0  1  0  0  0  0  0  0  0  0  0  0  1  0  0  1  1  1  0
%% 0  0  1  0  0  1  1  0  0  0  0  0  0  1  0  0  0  0  0  0
%% 0  1  0  0  0  1  0  0  1  0  0  0  0  0  0  0  0  0  0  1
%% 0  0  0  0  0  0  0  0  0  0  0  0  0  0  0  0  0  0  0  1
%% 0  0  0  0  0  2  0  0  1  0  0  0  0  0  0  0  0  0  0  0

%%Initial points:
iPoints=[25, 33, 34, 23, 20, 35, 44, 19, 38, 21, 27, 22, 25, 23, 27, 20, 25, 29, 50, 40];

%%Initial positions:
%iPositions=[13, 7, 6, 15, 19, 5, 2, 20, 4, 17, 10, 16, 12, 14, 9, 18, 11, 8, 1, 3];

%%Position Constraints:
%numberPositionConstraints=2;

%%Total Fixtures:
%totalFixtures=38;

%%Fixtures to Play:
%fixturesToPlay=13;

%%Position Constraints Built With
%wantedPoints=[3, 0, 0, 1, 1, 3, 0, 1, 1, 1, 0, 3, 1, 0, 0, 1, 3, 1, 1, 0, 0, 0, 0, 3, 0, 3, 0, 1, 3, 1, 3, 0, 1, 3, 3, 0, 1, 0, 0, 1, 0, 1, 0, 3, 3, 3, 3, 0, 1, 0, 3, 1, 3, 3, 1, 0, 0, 0, 3, 1, 3, 3, 1, 3, 3, 0, 3, 1, 3, 0, 0, 3, 3, 3, 0, 3, 0, 0, 3, 3, 3, 3, 3, 0, 1, 1, 1, 1, 0, 0, 0, 0, 1, 1, 0, 1, 0, 0, 0, 0, 3, 0, 0, 3, 3, 3, 3, 1, 3, 3, 1, 0, 1, 0, 3, 3, 0, 3, 0, 1, 3, 3, 3, 1, 1, 0, 3, 1, 1, 0];

%%Probabilities:
probabilities=[|59,20,0,21,|25,74,0,1,|99,1,0,0,|7,83,0,10,|63,25,0,12,|53,20,0,27,|98,2,0,0,|25,72,0,3,|44,36,0,20,|62,21,0,17,|59,14,0,27,|61,20,0,19,|30,48,0,22,|96,2,0,2,|59,4,0,37,|24,40,0,36,|97,0,0,3,|80,14,0,6,|84,11,0,5,|76,4,0,20,|21,24,0,55,|1,70,0,29,|3,36,0,61,|17,19,0,64,|19,80,0,1,|98,1,0,1,|50,44,0,6,|90,2,0,8,|40,11,0,49,|16,80,0,4,|81,18,0,1,|7,68,0,25,|24,45,0,31,|38,21,0,41,|78,14,0,8,|11,37,0,52,|13,26,0,61,|40,56,0,4,|5,22,0,73,|44,43,0,13,|89,9,0,2,|8,78,0,14,|11,47,0,42,|87,2,0,11,|90,2,0,8,|9,45,0,46,|12,63,0,25,|10,41,0,49,|94,2,0,4,|11,57,0,32,|6,63,0,31,|96,0,0,4,|7,45,0,48,|82,11,0,7,|23,27,0,50,|29,10,0,61,|39,56,0,5,|55,7,0,38,|62,4,0,34,|5,10,0,85,|45,16,0,39,|68,9,0,23,|88,4,0,8,|3,13,0,84,|78,16,0,6,|18,42,0,40,|9,81,0,10,|14,1,0,85,|94,0,0,6,|47,28,0,25,|48,42,0,10,|28,42,0,30,|79,0,0,21,|53,33,0,14,|3,22,0,75,|2,79,0,19,|27,16,0,57,|70,21,0,9,|11,1,0,88,|92,3,0,5,|57,26,0,17,|3,25,0,72,|55,1,0,44,|89,0,0,11,|6,18,0,76,|21,26,0,53,|57,37,0,6,|54,0,0,46,|11,1,0,88,|29,13,0,58,|94,4,0,2,|77,16,0,7,|91,4,0,5,|2,76,0,22,|2,86,0,12,|53,25,0,22,|59,10,0,31,|4,95,0,1,|55,2,0,43,|45,41,0,14,|89,3,0,8,|18,25,0,57,|5,21,0,74,|4,0,0,96,|58,14,0,28,|100,0,0,0,|80,20,0,0,|88,10,0,2,|26,2,0,72,|41,18,0,41,|69,24,0,7,|18,80,0,2,|57,37,0,6,|89,3,0,8,|7,2,0,91,|76,16,0,8,|61,33,0,6,|83,16,0,1,|51,47,0,2,|78,11,0,11,|16,1,0,83,|7,36,0,57,|19,0,0,81,|82,7,0,11,|19,9,0,72,|52,6,0,42,|74,13,0,13,|41,8,0,51,|18,54,0,28,|38,25,0,37,|];


%POSITION CONSTRAINTS
%%[|teamID, operator, position|...]
%%operators index:
%%%1 for =  operator
%%%2 for >  operator
%%%3 for >= operator
%%%4 for <  operator
%%%5 for <= operator

positionConstraints=[|14,1,8|19,1,1|];

%SCORE VECTOR CONSTRAINTS
%%[|teamID, operator, wantedPoints|...]
%%operators index:
%%%1 for =  operator
%%%2 for >  operator
%%%3 for >= operator
%%%4 for <  operator
%%%5 for <= operator

%scoreVectorConstraints=[|14,1,46|19,1,74|];

%Instance Features:
%features=T,FP,TF,C,C/T,C/TF,FP/TF,FP/T,FP*C/T,FP*T/C,(C/T)*(FP/TF),Distance,Distance/C,Distance/T,Distance/(C*T)
%values=20,13,38,2,0.1,0.05263157894736842,0.3421052631578947,0.65,1.3,130.0,0.03421052631578948,6,3.0,0.3,0.15



